c nIsolatedPIs 8
c maxPI 192
p cnf 724 1597
c gate 193 79 175 0
79 -193 0
175 -193 0
-79 -175 193 0
c gate 194 80 176 0
80 -194 0
176 -194 0
-80 -176 194 0
c gate 195 -193 -194 0
-193 -195 0
-194 -195 0
193 194 195 0
c gate 196 -79 -175 0
-79 -196 0
-175 -196 0
79 175 196 0
c gate 197 -78 -174 0
-78 -197 0
-174 -197 0
78 174 197 0
c gate 198 -196 -197 0
-196 -198 0
-197 -198 0
196 197 198 0
c gate 199 -77 -173 0
-77 -199 0
-173 -199 0
77 173 199 0
c gate 200 -76 -172 0
-76 -200 0
-172 -200 0
76 172 200 0
c gate 201 -199 -200 0
-199 -201 0
-200 -201 0
199 200 201 0
c gate 202 -74 -170 0
-74 -202 0
-170 -202 0
74 170 202 0
c gate 203 -75 -171 0
-75 -203 0
-171 -203 0
75 171 203 0
c gate 204 -202 -203 0
-202 -204 0
-203 -204 0
202 203 204 0
c gate 205 73 169 0
73 -205 0
169 -205 0
-73 -169 205 0
c gate 206 74 170 0
74 -206 0
170 -206 0
-74 -170 206 0
c gate 207 -205 -206 0
-205 -207 0
-206 -207 0
205 206 207 0
c gate 208 204 -207 0
204 -208 0
-207 -208 0
-204 207 208 0
c gate 209 76 172 0
76 -209 0
172 -209 0
-76 -172 209 0
c gate 210 75 171 0
75 -210 0
171 -210 0
-75 -171 210 0
c gate 211 -209 -210 0
-209 -211 0
-210 -211 0
209 210 211 0
c gate 212 -208 211 0
-208 -212 0
211 -212 0
208 -211 212 0
c gate 213 201 -212 0
201 -213 0
-212 -213 0
-201 212 213 0
c gate 214 78 174 0
78 -214 0
174 -214 0
-78 -174 214 0
c gate 215 77 173 0
77 -215 0
173 -215 0
-77 -173 215 0
c gate 216 -214 -215 0
-214 -216 0
-215 -216 0
214 215 216 0
c gate 217 -213 216 0
-213 -217 0
216 -217 0
213 -216 217 0
c gate 218 63 159 0
63 -218 0
159 -218 0
-63 -159 218 0
c gate 219 64 160 0
64 -219 0
160 -219 0
-64 -160 219 0
c gate 220 -218 -219 0
-218 -220 0
-219 -220 0
218 219 220 0
c gate 221 -63 -159 0
-63 -221 0
-159 -221 0
63 159 221 0
c gate 222 -62 -158 0
-62 -222 0
-158 -222 0
62 158 222 0
c gate 223 61 157 0
61 -223 0
157 -223 0
-61 -157 223 0
c gate 224 62 158 0
62 -224 0
158 -224 0
-62 -158 224 0
c gate 225 -223 -224 0
-223 -225 0
-224 -225 0
223 224 225 0
c gate 226 -222 -225 0
-222 -226 0
-225 -226 0
222 225 226 0
c gate 227 -60 -156 0
-60 -227 0
-156 -227 0
60 156 227 0
c gate 228 60 156 0
60 -228 0
156 -228 0
-60 -156 228 0
c gate 229 59 155 0
59 -229 0
155 -229 0
-59 -155 229 0
c gate 230 -228 -229 0
-228 -230 0
-229 -230 0
228 229 230 0
c gate 231 57 153 0
57 -231 0
153 -231 0
-57 -153 231 0
c gate 232 58 154 0
58 -232 0
154 -232 0
-58 -154 232 0
c gate 233 -231 -232 0
-231 -233 0
-232 -233 0
231 232 233 0
c gate 234 -58 -154 0
-58 -234 0
-154 -234 0
58 154 234 0
c gate 235 -59 -155 0
-59 -235 0
-155 -235 0
59 155 235 0
c gate 236 -234 -235 0
-234 -236 0
-235 -236 0
234 235 236 0
c gate 237 -233 236 0
-233 -237 0
236 -237 0
233 -236 237 0
c gate 238 230 -237 0
230 -238 0
-237 -238 0
-230 237 238 0
c gate 239 -227 -238 0
-227 -239 0
-238 -239 0
227 238 239 0
c gate 240 -57 -153 0
-57 -240 0
-153 -240 0
57 153 240 0
c gate 241 -227 -240 0
-227 -241 0
-240 -241 0
227 240 241 0
c gate 242 230 241 0
230 -242 0
241 -242 0
-230 -241 242 0
c gate 243 233 236 0
233 -243 0
236 -243 0
-233 -236 243 0
c gate 244 242 243 0
242 -244 0
243 -244 0
-242 -243 244 0
c gate 245 52 148 0
52 -245 0
148 -245 0
-52 -148 245 0
c gate 246 51 147 0
51 -246 0
147 -246 0
-51 -147 246 0
c gate 247 -245 -246 0
-245 -247 0
-246 -247 0
245 246 247 0
c gate 248 -52 -148 0
-52 -248 0
-148 -248 0
52 148 248 0
c gate 249 -247 -248 0
-247 -249 0
-248 -249 0
247 248 249 0
c gate 250 49 145 0
49 -250 0
145 -250 0
-49 -145 250 0
c gate 251 50 146 0
50 -251 0
146 -251 0
-50 -146 251 0
c gate 252 -250 -251 0
-250 -252 0
-251 -252 0
250 251 252 0
c gate 253 -51 -147 0
-51 -253 0
-147 -253 0
51 147 253 0
c gate 254 -50 -146 0
-50 -254 0
-146 -254 0
50 146 254 0
c gate 255 -248 -254 0
-248 -255 0
-254 -255 0
248 254 255 0
c gate 256 -253 255 0
-253 -256 0
255 -256 0
253 -255 256 0
c gate 257 247 256 0
247 -257 0
256 -257 0
-247 -256 257 0
c gate 258 -252 257 0
-252 -258 0
257 -258 0
252 -257 258 0
c gate 259 -249 -258 0
-249 -259 0
-258 -259 0
249 258 259 0
c gate 260 -53 -149 0
-53 -260 0
-149 -260 0
53 149 260 0
c gate 261 55 151 0
55 -261 0
151 -261 0
-55 -151 261 0
c gate 262 -260 -261 0
-260 -262 0
-261 -262 0
260 261 262 0
c gate 263 -54 -150 0
-54 -263 0
-150 -263 0
54 150 263 0
c gate 264 56 152 0
56 -264 0
152 -264 0
-56 -152 264 0
c gate 265 -263 -264 0
-263 -265 0
-264 -265 0
263 264 265 0
c gate 266 262 265 0
262 -266 0
265 -266 0
-262 -265 266 0
c gate 267 -55 -151 0
-55 -267 0
-151 -267 0
55 151 267 0
c gate 268 -56 -152 0
-56 -268 0
-152 -268 0
56 152 268 0
c gate 269 -267 -268 0
-267 -269 0
-268 -269 0
267 268 269 0
c gate 270 53 149 0
53 -270 0
149 -270 0
-53 -149 270 0
c gate 271 54 150 0
54 -271 0
150 -271 0
-54 -150 271 0
c gate 272 -270 -271 0
-270 -272 0
-271 -272 0
270 271 272 0
c gate 273 269 272 0
269 -273 0
272 -273 0
-269 -272 273 0
c gate 274 266 273 0
266 -274 0
273 -274 0
-266 -273 274 0
c gate 275 -259 274 0
-259 -275 0
274 -275 0
259 -274 275 0
c gate 276 -263 -272 0
-263 -276 0
-272 -276 0
263 272 276 0
c gate 277 -261 -276 0
-261 -277 0
-276 -277 0
261 276 277 0
c gate 278 269 -277 0
269 -278 0
-277 -278 0
-269 277 278 0
c gate 279 -264 -278 0
-264 -279 0
-278 -279 0
264 278 279 0
c gate 280 -275 279 0
-275 -280 0
279 -280 0
275 -279 280 0
c gate 281 244 -280 0
244 -281 0
-280 -281 0
-244 280 281 0
c gate 282 -239 -281 0
-239 -282 0
-281 -282 0
239 281 282 0
c gate 283 48 144 0
48 -283 0
144 -283 0
-48 -144 283 0
c gate 284 -48 -144 0
-48 -284 0
-144 -284 0
48 144 284 0
c gate 285 -47 -143 0
-47 -285 0
-143 -285 0
47 143 285 0
c gate 286 -284 -285 0
-284 -286 0
-285 -286 0
284 285 286 0
c gate 287 -44 -140 0
-44 -287 0
-140 -287 0
44 140 287 0
c gate 288 -43 -139 0
-43 -288 0
-139 -288 0
43 139 288 0
c gate 289 43 139 0
43 -289 0
139 -289 0
-43 -139 289 0
c gate 290 -42 -138 0
-42 -290 0
-138 -290 0
42 138 290 0
c gate 291 41 137 0
41 -291 0
137 -291 0
-41 -137 291 0
c gate 292 42 138 0
42 -292 0
138 -292 0
-42 -138 292 0
c gate 293 -291 -292 0
-291 -293 0
-292 -293 0
291 292 293 0
c gate 294 -290 -293 0
-290 -294 0
-293 -294 0
290 293 294 0
c gate 295 -289 -294 0
-289 -295 0
-294 -295 0
289 294 295 0
c gate 296 -288 -295 0
-288 -296 0
-295 -296 0
288 295 296 0
c gate 297 44 140 0
44 -297 0
140 -297 0
-44 -140 297 0
c gate 298 -296 -297 0
-296 -298 0
-297 -298 0
296 297 298 0
c gate 299 -287 -298 0
-287 -299 0
-298 -299 0
287 298 299 0
c gate 300 40 136 0
40 -300 0
136 -300 0
-40 -136 300 0
c gate 301 -39 -135 0
-39 -301 0
-135 -301 0
39 135 301 0
c gate 302 -40 -136 0
-40 -302 0
-136 -302 0
40 136 302 0
c gate 303 -301 -302 0
-301 -303 0
-302 -303 0
301 302 303 0
c gate 304 39 135 0
39 -304 0
135 -304 0
-39 -135 304 0
c gate 305 37 133 0
37 -305 0
133 -305 0
-37 -133 305 0
c gate 306 38 134 0
38 -306 0
134 -306 0
-38 -134 306 0
c gate 307 -305 -306 0
-305 -307 0
-306 -307 0
305 306 307 0
c gate 308 -38 -134 0
-38 -308 0
-134 -308 0
38 134 308 0
c gate 309 -307 -308 0
-307 -309 0
-308 -309 0
307 308 309 0
c gate 310 -304 -309 0
-304 -310 0
-309 -310 0
304 309 310 0
c gate 311 303 -310 0
303 -311 0
-310 -311 0
-303 310 311 0
c gate 312 -300 -311 0
-300 -312 0
-311 -312 0
300 311 312 0
c gate 313 -37 -133 0
-37 -313 0
-133 -313 0
37 133 313 0
c gate 314 -308 -313 0
-308 -314 0
-313 -314 0
308 313 314 0
c gate 315 303 314 0
303 -315 0
314 -315 0
-303 -314 315 0
c gate 316 312 315 0
312 -316 0
315 -316 0
-312 -315 316 0
c gate 317 -36 -132 0
-36 -317 0
-132 -317 0
36 132 317 0
c gate 318 34 130 0
34 -318 0
130 -318 0
-34 -130 318 0
c gate 319 33 129 0
33 -319 0
129 -319 0
-33 -129 319 0
c gate 320 -318 -319 0
-318 -320 0
-319 -320 0
318 319 320 0
c gate 321 -34 -130 0
-34 -321 0
-130 -321 0
34 130 321 0
c gate 322 -35 -131 0
-35 -322 0
-131 -322 0
35 131 322 0
c gate 323 -321 -322 0
-321 -323 0
-322 -323 0
321 322 323 0
c gate 324 -320 323 0
-320 -324 0
323 -324 0
320 -323 324 0
c gate 325 36 132 0
36 -325 0
132 -325 0
-36 -132 325 0
c gate 326 35 131 0
35 -326 0
131 -326 0
-35 -131 326 0
c gate 327 -325 -326 0
-325 -327 0
-326 -327 0
325 326 327 0
c gate 328 -324 327 0
-324 -328 0
327 -328 0
324 -327 328 0
c gate 329 -317 -328 0
-317 -329 0
-328 -329 0
317 328 329 0
c gate 330 -33 -129 0
-33 -330 0
-129 -330 0
33 129 330 0
c gate 331 -317 -330 0
-317 -331 0
-330 -331 0
317 330 331 0
c gate 332 323 331 0
323 -332 0
331 -332 0
-323 -331 332 0
c gate 333 328 332 0
328 -333 0
332 -333 0
-328 -332 333 0
c gate 334 19 115 0
19 -334 0
115 -334 0
-19 -115 334 0
c gate 335 20 116 0
20 -335 0
116 -335 0
-20 -116 335 0
c gate 336 -334 -335 0
-334 -336 0
-335 -336 0
334 335 336 0
c gate 337 18 114 0
18 -337 0
114 -337 0
-18 -114 337 0
c gate 338 17 113 0
17 -338 0
113 -338 0
-17 -113 338 0
c gate 339 -337 -338 0
-337 -339 0
-338 -339 0
337 338 339 0
c gate 340 -19 -115 0
-19 -340 0
-115 -340 0
19 115 340 0
c gate 341 -18 -114 0
-18 -341 0
-114 -341 0
18 114 341 0
c gate 342 -340 -341 0
-340 -342 0
-341 -342 0
340 341 342 0
c gate 343 -339 342 0
-339 -343 0
342 -343 0
339 -342 343 0
c gate 344 336 -343 0
336 -344 0
-343 -344 0
-336 343 344 0
c gate 345 23 119 0
23 -345 0
119 -345 0
-23 -119 345 0
c gate 346 21 117 0
21 -346 0
117 -346 0
-21 -117 346 0
c gate 347 22 118 0
22 -347 0
118 -347 0
-22 -118 347 0
c gate 348 -346 -347 0
-346 -348 0
-347 -348 0
346 347 348 0
c gate 349 -23 -119 0
-23 -349 0
-119 -349 0
23 119 349 0
c gate 350 -22 -118 0
-22 -350 0
-118 -350 0
22 118 350 0
c gate 351 -349 -350 0
-349 -351 0
-350 -351 0
349 350 351 0
c gate 352 -348 351 0
-348 -352 0
351 -352 0
348 -351 352 0
c gate 353 -345 -352 0
-345 -353 0
-352 -353 0
345 352 353 0
c gate 354 -24 -120 0
-24 -354 0
-120 -354 0
24 120 354 0
c gate 355 24 120 0
24 -355 0
120 -355 0
-24 -120 355 0
c gate 356 -354 -355 0
-354 -356 0
-355 -356 0
354 355 356 0
c gate 357 -20 -116 0
-20 -357 0
-116 -357 0
20 116 357 0
c gate 358 -21 -117 0
-21 -358 0
-117 -358 0
21 117 358 0
c gate 359 -357 -358 0
-357 -359 0
-358 -359 0
357 358 359 0
c gate 360 356 359 0
356 -360 0
359 -360 0
-356 -359 360 0
c gate 361 351 360 0
351 -361 0
360 -361 0
-351 -360 361 0
c gate 362 353 361 0
353 -362 0
361 -362 0
-353 -361 362 0
c gate 363 -344 362 0
-344 -363 0
362 -363 0
344 -362 363 0
c gate 364 -353 -354 0
-353 -364 0
-354 -364 0
353 354 364 0
c gate 365 -355 -364 0
-355 -365 0
-364 -365 0
355 364 365 0
c gate 366 -363 365 0
-363 -366 0
365 -366 0
363 -365 366 0
c gate 367 25 121 0
25 -367 0
121 -367 0
-25 -121 367 0
c gate 368 26 122 0
26 -368 0
122 -368 0
-26 -122 368 0
c gate 369 -367 -368 0
-367 -369 0
-368 -369 0
367 368 369 0
c gate 370 -25 -121 0
-25 -370 0
-121 -370 0
25 121 370 0
c gate 371 -28 -124 0
-28 -371 0
-124 -371 0
28 124 371 0
c gate 372 -370 -371 0
-370 -372 0
-371 -372 0
370 371 372 0
c gate 373 369 372 0
369 -373 0
372 -373 0
-369 -372 373 0
c gate 374 -27 -123 0
-27 -374 0
-123 -374 0
27 123 374 0
c gate 375 -26 -122 0
-26 -375 0
-122 -375 0
26 122 375 0
c gate 376 -374 -375 0
-374 -376 0
-375 -376 0
374 375 376 0
c gate 377 28 124 0
28 -377 0
124 -377 0
-28 -124 377 0
c gate 378 27 123 0
27 -378 0
123 -378 0
-27 -123 378 0
c gate 379 -377 -378 0
-377 -379 0
-378 -379 0
377 378 379 0
c gate 380 376 379 0
376 -380 0
379 -380 0
-376 -379 380 0
c gate 381 373 380 0
373 -381 0
380 -381 0
-373 -380 381 0
c gate 382 -366 381 0
-366 -382 0
381 -382 0
366 -381 382 0
c gate 383 -369 376 0
-369 -383 0
376 -383 0
369 -376 383 0
c gate 384 379 -383 0
379 -384 0
-383 -384 0
-379 383 384 0
c gate 385 -371 -384 0
-371 -385 0
-384 -385 0
371 384 385 0
c gate 386 -382 -385 0
-382 -386 0
-385 -386 0
382 385 386 0
c gate 387 -31 -127 0
-31 -387 0
-127 -387 0
31 127 387 0
c gate 388 29 125 0
29 -388 0
125 -388 0
-29 -125 388 0
c gate 389 30 126 0
30 -389 0
126 -389 0
-30 -126 389 0
c gate 390 -388 -389 0
-388 -390 0
-389 -390 0
388 389 390 0
c gate 391 -29 -125 0
-29 -391 0
-125 -391 0
29 125 391 0
c gate 392 -30 -126 0
-30 -392 0
-126 -392 0
30 126 392 0
c gate 393 -391 -392 0
-391 -393 0
-392 -393 0
391 392 393 0
c gate 394 390 393 0
390 -394 0
393 -394 0
-390 -393 394 0
c gate 395 -387 394 0
-387 -395 0
394 -395 0
387 -394 395 0
c gate 396 -32 -128 0
-32 -396 0
-128 -396 0
32 128 396 0
c gate 397 31 127 0
31 -397 0
127 -397 0
-31 -127 397 0
c gate 398 32 128 0
32 -398 0
128 -398 0
-32 -128 398 0
c gate 399 -397 -398 0
-397 -399 0
-398 -399 0
397 398 399 0
c gate 400 -396 399 0
-396 -400 0
399 -400 0
396 -399 400 0
c gate 401 395 400 0
395 -401 0
400 -401 0
-395 -400 401 0
c gate 402 -386 401 0
-386 -402 0
401 -402 0
386 -401 402 0
c gate 403 -390 -392 0
-390 -403 0
-392 -403 0
390 392 403 0
c gate 404 -387 403 0
-387 -404 0
403 -404 0
387 -403 404 0
c gate 405 399 -404 0
399 -405 0
-404 -405 0
-399 404 405 0
c gate 406 -396 -405 0
-396 -406 0
-405 -406 0
396 405 406 0
c gate 407 -402 -406 0
-402 -407 0
-406 -407 0
402 406 407 0
c gate 408 16 112 0
16 -408 0
112 -408 0
-16 -112 408 0
c gate 409 15 111 0
15 -409 0
111 -409 0
-15 -111 409 0
c gate 410 -408 -409 0
-408 -410 0
-409 -410 0
408 409 410 0
c gate 411 14 110 0
14 -411 0
110 -411 0
-14 -110 411 0
c gate 412 13 109 0
13 -412 0
109 -412 0
-13 -109 412 0
c gate 413 -411 -412 0
-411 -413 0
-412 -413 0
411 412 413 0
c gate 414 -12 -108 0
-12 -414 0
-108 -414 0
12 108 414 0
c gate 415 -13 -109 0
-13 -415 0
-109 -415 0
13 109 415 0
c gate 416 -414 -415 0
-414 -416 0
-415 -416 0
414 415 416 0
c gate 417 -11 -107 0
-11 -417 0
-107 -417 0
11 107 417 0
c gate 418 -10 -106 0
-10 -418 0
-106 -418 0
10 106 418 0
c gate 419 -417 -418 0
-417 -419 0
-418 -419 0
417 418 419 0
c gate 420 9 105 0
9 -420 0
105 -420 0
-9 -105 420 0
c gate 421 10 106 0
10 -421 0
106 -421 0
-10 -106 421 0
c gate 422 -420 -421 0
-420 -422 0
-421 -422 0
420 421 422 0
c gate 423 419 -422 0
419 -423 0
-422 -423 0
-419 422 423 0
c gate 424 11 107 0
11 -424 0
107 -424 0
-11 -107 424 0
c gate 425 12 108 0
12 -425 0
108 -425 0
-12 -108 425 0
c gate 426 -424 -425 0
-424 -426 0
-425 -426 0
424 425 426 0
c gate 427 -423 426 0
-423 -427 0
426 -427 0
423 -426 427 0
c gate 428 2 98 0
2 -428 0
98 -428 0
-2 -98 428 0
c gate 429 1 97 0
1 -429 0
97 -429 0
-1 -97 429 0
c gate 430 -428 -429 0
-428 -430 0
-429 -430 0
428 429 430 0
c gate 431 -3 -99 0
-3 -431 0
-99 -431 0
3 99 431 0
c gate 432 -2 -98 0
-2 -432 0
-98 -432 0
2 98 432 0
c gate 433 -431 -432 0
-431 -433 0
-432 -433 0
431 432 433 0
c gate 434 -430 433 0
-430 -434 0
433 -434 0
430 -433 434 0
c gate 435 4 100 0
4 -435 0
100 -435 0
-4 -100 435 0
c gate 436 3 99 0
3 -436 0
99 -436 0
-3 -99 436 0
c gate 437 -435 -436 0
-435 -437 0
-436 -437 0
435 436 437 0
c gate 438 -434 437 0
-434 -438 0
437 -438 0
434 -437 438 0
c gate 439 -4 -100 0
-4 -439 0
-100 -439 0
4 100 439 0
c gate 440 -5 -101 0
-5 -440 0
-101 -440 0
5 101 440 0
c gate 441 -439 -440 0
-439 -441 0
-440 -441 0
439 440 441 0
c gate 442 -438 441 0
-438 -442 0
441 -442 0
438 -441 442 0
c gate 443 6 102 0
6 -443 0
102 -443 0
-6 -102 443 0
c gate 444 5 101 0
5 -444 0
101 -444 0
-5 -101 444 0
c gate 445 -443 -444 0
-443 -445 0
-444 -445 0
443 444 445 0
c gate 446 -442 445 0
-442 -446 0
445 -446 0
442 -445 446 0
c gate 447 -7 -103 0
-7 -447 0
-103 -447 0
7 103 447 0
c gate 448 -6 -102 0
-6 -448 0
-102 -448 0
6 102 448 0
c gate 449 -447 -448 0
-447 -449 0
-448 -449 0
447 448 449 0
c gate 450 -446 449 0
-446 -450 0
449 -450 0
446 -449 450 0
c gate 451 8 104 0
8 -451 0
104 -451 0
-8 -104 451 0
c gate 452 7 103 0
7 -452 0
103 -452 0
-7 -103 452 0
c gate 453 -451 -452 0
-451 -453 0
-452 -453 0
451 452 453 0
c gate 454 -450 453 0
-450 -454 0
453 -454 0
450 -453 454 0
c gate 455 -9 -105 0
-9 -455 0
-105 -455 0
9 105 455 0
c gate 456 -8 -104 0
-8 -456 0
-104 -456 0
8 104 456 0
c gate 457 -455 -456 0
-455 -457 0
-456 -457 0
455 456 457 0
c gate 458 419 457 0
419 -458 0
457 -458 0
-419 -457 458 0
c gate 459 -454 458 0
-454 -459 0
458 -459 0
454 -458 459 0
c gate 460 427 -459 0
427 -460 0
-459 -460 0
-427 459 460 0
c gate 461 416 -460 0
416 -461 0
-460 -461 0
-416 460 461 0
c gate 462 413 -461 0
413 -462 0
-461 -462 0
-413 461 462 0
c gate 463 -15 -111 0
-15 -463 0
-111 -463 0
15 111 463 0
c gate 464 -14 -110 0
-14 -464 0
-110 -464 0
14 110 464 0
c gate 465 -463 -464 0
-463 -465 0
-464 -465 0
463 464 465 0
c gate 466 -462 465 0
-462 -466 0
465 -466 0
462 -465 466 0
c gate 467 410 -466 0
410 -467 0
-466 -467 0
-410 466 467 0
c gate 468 -16 -112 0
-16 -468 0
-112 -468 0
16 112 468 0
c gate 469 -17 -113 0
-17 -469 0
-113 -469 0
17 113 469 0
c gate 470 -468 -469 0
-468 -470 0
-469 -470 0
468 469 470 0
c gate 471 336 470 0
336 -471 0
470 -471 0
-336 -470 471 0
c gate 472 339 342 0
339 -472 0
342 -472 0
-339 -342 472 0
c gate 473 471 472 0
471 -473 0
472 -473 0
-471 -472 473 0
c gate 474 362 473 0
362 -474 0
473 -474 0
-362 -473 474 0
c gate 475 -467 474 0
-467 -475 0
474 -475 0
467 -474 475 0
c gate 476 381 475 0
381 -476 0
475 -476 0
-381 -475 476 0
c gate 477 401 476 0
401 -477 0
476 -477 0
-401 -476 477 0
c gate 478 407 -477 0
407 -478 0
-477 -478 0
-407 477 478 0
c gate 479 333 -478 0
333 -479 0
-478 -479 0
-333 478 479 0
c gate 480 -329 -479 0
-329 -480 0
-479 -480 0
329 479 480 0
c gate 481 316 -480 0
316 -481 0
-480 -481 0
-316 480 481 0
c gate 482 312 -481 0
312 -482 0
-481 -482 0
-312 481 482 0
c gate 483 -41 -137 0
-41 -483 0
-137 -483 0
41 137 483 0
c gate 484 -290 -291 0
-290 -484 0
-291 -484 0
290 291 484 0
c gate 485 -483 484 0
-483 -485 0
484 -485 0
483 -484 485 0
c gate 486 -288 293 0
-288 -486 0
293 -486 0
288 -293 486 0
c gate 487 485 486 0
485 -487 0
486 -487 0
-485 -486 487 0
c gate 488 -287 487 0
-287 -488 0
487 -488 0
287 -487 488 0
c gate 489 298 488 0
298 -489 0
488 -489 0
-298 -488 489 0
c gate 490 -482 489 0
-482 -490 0
489 -490 0
482 -489 490 0
c gate 491 -299 -490 0
-299 -491 0
-490 -491 0
299 490 491 0
c gate 492 45 141 0
45 -492 0
141 -492 0
-45 -141 492 0
c gate 493 46 142 0
46 -493 0
142 -493 0
-46 -142 493 0
c gate 494 -492 -493 0
-492 -494 0
-493 -494 0
492 493 494 0
c gate 495 -46 -142 0
-46 -495 0
-142 -495 0
46 142 495 0
c gate 496 -45 -141 0
-45 -496 0
-141 -496 0
45 141 496 0
c gate 497 -495 -496 0
-495 -497 0
-496 -497 0
495 496 497 0
c gate 498 494 497 0
494 -498 0
497 -498 0
-494 -497 498 0
c gate 499 -491 498 0
-491 -499 0
498 -499 0
491 -498 499 0
c gate 500 -494 -495 0
-494 -500 0
-495 -500 0
494 495 500 0
c gate 501 47 143 0
47 -501 0
143 -501 0
-47 -143 501 0
c gate 502 -500 -501 0
-500 -502 0
-501 -502 0
500 501 502 0
c gate 503 -499 502 0
-499 -503 0
502 -503 0
499 -502 503 0
c gate 504 286 -503 0
286 -504 0
-503 -504 0
-286 503 504 0
c gate 505 -283 -504 0
-283 -505 0
-504 -505 0
283 504 505 0
c gate 506 -49 -145 0
-49 -506 0
-145 -506 0
49 145 506 0
c gate 507 252 -506 0
252 -507 0
-506 -507 0
-252 506 507 0
c gate 508 257 507 0
257 -508 0
507 -508 0
-257 -507 508 0
c gate 509 274 508 0
274 -509 0
508 -509 0
-274 -508 509 0
c gate 510 -505 509 0
-505 -510 0
509 -510 0
505 -509 510 0
c gate 511 244 510 0
244 -511 0
510 -511 0
-244 -510 511 0
c gate 512 282 -511 0
282 -512 0
-511 -512 0
-282 511 512 0
c gate 513 -61 -157 0
-61 -513 0
-157 -513 0
61 157 513 0
c gate 514 -222 -513 0
-222 -514 0
-513 -514 0
222 513 514 0
c gate 515 225 514 0
225 -515 0
514 -515 0
-225 -514 515 0
c gate 516 -512 515 0
-512 -516 0
515 -516 0
512 -515 516 0
c gate 517 -226 -516 0
-226 -517 0
-516 -517 0
226 516 517 0
c gate 518 -221 -517 0
-221 -518 0
-517 -518 0
221 517 518 0
c gate 519 220 -518 0
220 -519 0
-518 -519 0
-220 518 519 0
c gate 520 67 163 0
67 -520 0
163 -520 0
-67 -163 520 0
c gate 521 68 164 0
68 -521 0
164 -521 0
-68 -164 521 0
c gate 522 -520 -521 0
-520 -522 0
-521 -522 0
520 521 522 0
c gate 523 -67 -163 0
-67 -523 0
-163 -523 0
67 163 523 0
c gate 524 -68 -164 0
-68 -524 0
-164 -524 0
68 164 524 0
c gate 525 -523 -524 0
-523 -525 0
-524 -525 0
523 524 525 0
c gate 526 522 525 0
522 -526 0
525 -526 0
-522 -525 526 0
c gate 527 65 161 0
65 -527 0
161 -527 0
-65 -161 527 0
c gate 528 66 162 0
66 -528 0
162 -528 0
-66 -162 528 0
c gate 529 -527 -528 0
-527 -529 0
-528 -529 0
527 528 529 0
c gate 530 -65 -161 0
-65 -530 0
-161 -530 0
65 161 530 0
c gate 531 -64 -160 0
-64 -531 0
-160 -531 0
64 160 531 0
c gate 532 -66 -162 0
-66 -532 0
-162 -532 0
66 162 532 0
c gate 533 -531 -532 0
-531 -533 0
-532 -533 0
531 532 533 0
c gate 534 -530 533 0
-530 -534 0
533 -534 0
530 -533 534 0
c gate 535 529 534 0
529 -535 0
534 -535 0
-529 -534 535 0
c gate 536 526 535 0
526 -536 0
535 -536 0
-526 -535 536 0
c gate 537 -519 536 0
-519 -537 0
536 -537 0
519 -536 537 0
c gate 538 -522 -524 0
-522 -538 0
-524 -538 0
522 524 538 0
c gate 539 -529 -532 0
-529 -539 0
-532 -539 0
529 532 539 0
c gate 540 526 539 0
526 -540 0
539 -540 0
-526 -539 540 0
c gate 541 -538 -540 0
-538 -541 0
-540 -541 0
538 540 541 0
c gate 542 -537 541 0
-537 -542 0
541 -542 0
537 -541 542 0
c gate 543 69 165 0
69 -543 0
165 -543 0
-69 -165 543 0
c gate 544 70 166 0
70 -544 0
166 -544 0
-70 -166 544 0
c gate 545 -543 -544 0
-543 -545 0
-544 -545 0
543 544 545 0
c gate 546 -70 -166 0
-70 -546 0
-166 -546 0
70 166 546 0
c gate 547 -69 -165 0
-69 -547 0
-165 -547 0
69 165 547 0
c gate 548 -546 -547 0
-546 -548 0
-547 -548 0
546 547 548 0
c gate 549 545 548 0
545 -549 0
548 -549 0
-545 -548 549 0
c gate 550 71 167 0
71 -550 0
167 -550 0
-71 -167 550 0
c gate 551 72 168 0
72 -551 0
168 -551 0
-72 -168 551 0
c gate 552 -550 -551 0
-550 -552 0
-551 -552 0
550 551 552 0
c gate 553 -71 -167 0
-71 -553 0
-167 -553 0
71 167 553 0
c gate 554 -72 -168 0
-72 -554 0
-168 -554 0
72 168 554 0
c gate 555 -553 -554 0
-553 -555 0
-554 -555 0
553 554 555 0
c gate 556 552 555 0
552 -556 0
555 -556 0
-552 -555 556 0
c gate 557 549 556 0
549 -557 0
556 -557 0
-549 -556 557 0
c gate 558 -542 557 0
-542 -558 0
557 -558 0
542 -557 558 0
c gate 559 -545 -546 0
-545 -559 0
-546 -559 0
545 546 559 0
c gate 560 -553 559 0
-553 -560 0
559 -560 0
553 -559 560 0
c gate 561 552 -560 0
552 -561 0
-560 -561 0
-552 560 561 0
c gate 562 -554 -561 0
-554 -562 0
-561 -562 0
554 561 562 0
c gate 563 -558 -562 0
-558 -563 0
-562 -563 0
558 562 563 0
c gate 564 -73 -169 0
-73 -564 0
-169 -564 0
73 169 564 0
c gate 565 201 -564 0
201 -565 0
-564 -565 0
-201 564 565 0
c gate 566 204 565 0
204 -566 0
565 -566 0
-204 -565 566 0
c gate 567 212 566 0
212 -567 0
566 -567 0
-212 -566 567 0
c gate 568 -563 567 0
-563 -568 0
567 -568 0
563 -567 568 0
c gate 569 217 -568 0
217 -569 0
-568 -569 0
-217 568 569 0
c gate 570 198 -569 0
198 -570 0
-569 -570 0
-198 569 570 0
c gate 571 195 -570 0
195 -571 0
-570 -571 0
-195 570 571 0
c gate 572 -80 -176 0
-80 -572 0
-176 -572 0
80 176 572 0
c gate 573 198 -217 0
198 -573 0
-217 -573 0
-198 217 573 0
c gate 574 195 -573 0
195 -574 0
-573 -574 0
-195 573 574 0
c gate 575 -93 -189 0
-93 -575 0
-189 -575 0
93 189 575 0
c gate 576 -86 -182 0
-86 -576 0
-182 -576 0
86 182 576 0
c gate 577 -575 -576 0
-575 -577 0
-576 -577 0
575 576 577 0
c gate 578 89 185 0
89 -578 0
185 -578 0
-89 -185 578 0
c gate 579 -94 -190 0
-94 -579 0
-190 -579 0
94 190 579 0
c gate 580 -578 -579 0
-578 -580 0
-579 -580 0
578 579 580 0
c gate 581 577 580 0
577 -581 0
580 -581 0
-577 -580 581 0
c gate 582 -82 -178 0
-82 -582 0
-178 -582 0
82 178 582 0
c gate 583 93 189 0
93 -583 0
189 -583 0
-93 -189 583 0
c gate 584 -582 -583 0
-582 -584 0
-583 -584 0
582 583 584 0
c gate 585 -87 -183 0
-87 -585 0
-183 -585 0
87 183 585 0
c gate 586 -92 -188 0
-92 -586 0
-188 -586 0
92 188 586 0
c gate 587 -585 -586 0
-585 -587 0
-586 -587 0
585 586 587 0
c gate 588 584 587 0
584 -588 0
587 -588 0
-584 -587 588 0
c gate 589 581 588 0
581 -589 0
588 -589 0
-581 -588 589 0
c gate 590 87 183 0
87 -590 0
183 -590 0
-87 -183 590 0
c gate 591 88 184 0
88 -591 0
184 -591 0
-88 -184 591 0
c gate 592 -590 -591 0
-590 -592 0
-591 -592 0
590 591 592 0
c gate 593 -89 -185 0
-89 -593 0
-185 -593 0
89 185 593 0
c gate 594 81 177 0
81 -594 0
177 -594 0
-81 -177 594 0
c gate 595 -593 -594 0
-593 -595 0
-594 -595 0
593 594 595 0
c gate 596 592 595 0
592 -596 0
595 -596 0
-592 -595 596 0
c gate 597 -85 -181 0
-85 -597 0
-181 -597 0
85 181 597 0
c gate 598 82 178 0
82 -598 0
178 -598 0
-82 -178 598 0
c gate 599 -597 -598 0
-597 -599 0
-598 -599 0
597 598 599 0
c gate 600 -91 -187 0
-91 -600 0
-187 -600 0
91 187 600 0
c gate 601 91 187 0
91 -601 0
187 -601 0
-91 -187 601 0
c gate 602 -600 -601 0
-600 -602 0
-601 -602 0
600 601 602 0
c gate 603 599 602 0
599 -603 0
602 -603 0
-599 -602 603 0
c gate 604 596 603 0
596 -604 0
603 -604 0
-596 -603 604 0
c gate 605 589 604 0
589 -605 0
604 -605 0
-589 -604 605 0
c gate 606 84 -180 0
84 -606 0
-180 -606 0
-84 180 606 0
c gate 607 -84 180 0
-84 -607 0
180 -607 0
84 -180 607 0
c gate 608 -606 -607 0
-606 -608 0
-607 -608 0
606 607 608 0
c gate 609 92 188 0
92 -609 0
188 -609 0
-92 -188 609 0
c gate 610 -81 -177 0
-81 -610 0
-177 -610 0
81 177 610 0
c gate 611 -609 -610 0
-609 -611 0
-610 -611 0
609 610 611 0
c gate 612 -608 611 0
-608 -612 0
611 -612 0
608 -611 612 0
c gate 613 96 -192 0
96 -613 0
-192 -613 0
-96 192 613 0
c gate 614 -96 192 0
-96 -614 0
192 -614 0
96 -192 614 0
c gate 615 -613 -614 0
-613 -615 0
-614 -615 0
613 614 615 0
c gate 616 83 -179 0
83 -616 0
-179 -616 0
-83 179 616 0
c gate 617 -83 179 0
-83 -617 0
179 -617 0
83 -179 617 0
c gate 618 -616 -617 0
-616 -618 0
-617 -618 0
616 617 618 0
c gate 619 -615 -618 0
-615 -619 0
-618 -619 0
615 618 619 0
c gate 620 612 619 0
612 -620 0
619 -620 0
-612 -619 620 0
c gate 621 90 186 0
90 -621 0
186 -621 0
-90 -186 621 0
c gate 622 86 182 0
86 -622 0
182 -622 0
-86 -182 622 0
c gate 623 -621 -622 0
-621 -623 0
-622 -623 0
621 622 623 0
c gate 624 85 181 0
85 -624 0
181 -624 0
-85 -181 624 0
c gate 625 -95 -191 0
-95 -625 0
-191 -625 0
95 191 625 0
c gate 626 -624 -625 0
-624 -626 0
-625 -626 0
624 625 626 0
c gate 627 623 626 0
623 -627 0
626 -627 0
-623 -626 627 0
c gate 628 -88 -184 0
-88 -628 0
-184 -628 0
88 184 628 0
c gate 629 95 191 0
95 -629 0
191 -629 0
-95 -191 629 0
c gate 630 -628 -629 0
-628 -630 0
-629 -630 0
628 629 630 0
c gate 631 94 190 0
94 -631 0
190 -631 0
-94 -190 631 0
c gate 632 -90 -186 0
-90 -632 0
-186 -632 0
90 186 632 0
c gate 633 -631 -632 0
-631 -633 0
-632 -633 0
631 632 633 0
c gate 634 630 633 0
630 -634 0
633 -634 0
-630 -633 634 0
c gate 635 627 634 0
627 -635 0
634 -635 0
-627 -634 635 0
c gate 636 620 635 0
620 -636 0
635 -636 0
-620 -635 636 0
c gate 637 605 636 0
605 -637 0
636 -637 0
-605 -636 637 0
c gate 638 -574 -637 0
-574 -638 0
-637 -638 0
574 637 638 0
c gate 639 -572 -638 0
-572 -639 0
-638 -639 0
572 638 639 0
c gate 640 -571 639 0
-571 -640 0
639 -640 0
571 -639 640 0
c gate 641 -282 515 0
-282 -641 0
515 -641 0
282 -515 641 0
c gate 642 -226 -641 0
-226 -642 0
-641 -642 0
226 641 642 0
c gate 643 -221 -642 0
-221 -643 0
-642 -643 0
221 642 643 0
c gate 644 220 -643 0
220 -644 0
-643 -644 0
-220 643 644 0
c gate 645 536 -644 0
536 -645 0
-644 -645 0
-536 644 645 0
c gate 646 557 645 0
557 -646 0
645 -646 0
-557 -645 646 0
c gate 647 -541 -547 0
-541 -647 0
-547 -647 0
541 547 647 0
c gate 648 545 -647 0
545 -648 0
-647 -648 0
-545 647 648 0
c gate 649 -546 -553 0
-546 -649 0
-553 -649 0
546 553 649 0
c gate 650 -648 649 0
-648 -650 0
649 -650 0
648 -649 650 0
c gate 651 552 -650 0
552 -651 0
-650 -651 0
-552 650 651 0
c gate 652 -554 -651 0
-554 -652 0
-651 -652 0
554 651 652 0
c gate 653 -646 -652 0
-646 -653 0
-652 -653 0
646 652 653 0
c gate 654 -563 -653 0
-563 -654 0
-653 -654 0
563 653 654 0
c gate 655 563 653 0
563 -655 0
653 -655 0
-563 -653 655 0
c gate 656 -654 -655 0
-654 -656 0
-655 -656 0
654 655 656 0
c gate 657 -542 549 0
-542 -657 0
549 -657 0
542 -549 657 0
c gate 658 -559 -657 0
-559 -658 0
-657 -658 0
559 657 658 0
c gate 659 541 -543 0
541 -659 0
-543 -659 0
-541 543 659 0
c gate 660 -645 659 0
-645 -660 0
659 -660 0
645 -659 660 0
c gate 661 548 -660 0
548 -661 0
-660 -661 0
-548 660 661 0
c gate 662 -544 -661 0
-544 -662 0
-661 -662 0
544 661 662 0
c gate 663 658 -662 0
658 -663 0
-662 -663 0
-658 662 663 0
c gate 664 -658 662 0
-658 -664 0
662 -664 0
658 -662 664 0
c gate 665 333 -407 0
333 -665 0
-407 -665 0
-333 407 665 0
c gate 666 -329 -665 0
-329 -666 0
-665 -666 0
329 665 666 0
c gate 667 316 -666 0
316 -667 0
-666 -667 0
-316 666 667 0
c gate 668 312 -667 0
312 -668 0
-667 -668 0
-312 667 668 0
c gate 669 489 -668 0
489 -669 0
-668 -669 0
-489 668 669 0
c gate 670 -299 -669 0
-299 -670 0
-669 -670 0
299 669 670 0
c gate 671 -283 -501 0
-283 -671 0
-501 -671 0
283 501 671 0
c gate 672 496 671 0
496 -672 0
671 -672 0
-496 -671 672 0
c gate 673 286 672 0
286 -673 0
672 -673 0
-286 -672 673 0
c gate 674 -670 -673 0
-670 -674 0
-673 -674 0
670 673 674 0
c gate 675 494 -674 0
494 -675 0
-674 -675 0
-494 674 675 0
c gate 676 -285 495 0
-285 -676 0
495 -676 0
285 -495 676 0
c gate 677 -501 676 0
-501 -677 0
676 -677 0
501 -676 677 0
c gate 678 -675 -677 0
-675 -678 0
-677 -678 0
675 677 678 0
c gate 679 499 -678 0
499 -679 0
-678 -679 0
-499 678 679 0
c gate 680 485 -668 0
485 -680 0
-668 -680 0
-485 668 680 0
c gate 681 -294 -680 0
-294 -681 0
-680 -681 0
294 680 681 0
c gate 682 -288 -681 0
-288 -682 0
-681 -682 0
288 681 682 0
c gate 683 -289 -682 0
-289 -683 0
-682 -683 0
289 682 683 0
c gate 684 -482 487 0
-482 -684 0
487 -684 0
482 -487 684 0
c gate 685 -296 -684 0
-296 -685 0
-684 -685 0
296 684 685 0
c gate 686 683 -685 0
683 -686 0
-685 -686 0
-683 685 686 0
c gate 687 -683 685 0
-683 -687 0
685 -687 0
683 -685 687 0
c gate 688 -492 -496 0
-492 -688 0
-496 -688 0
492 496 688 0
c gate 689 670 688 0
670 -689 0
688 -689 0
-670 -688 689 0
c gate 690 490 689 0
490 -690 0
689 -690 0
-490 -689 690 0
c gate 691 481 668 0
481 -691 0
668 -691 0
-481 -668 691 0
c gate 692 386 476 0
386 -692 0
476 -692 0
-386 -476 692 0
c gate 693 394 692 0
394 -693 0
692 -693 0
-394 -692 693 0
c gate 694 -388 -391 0
-388 -694 0
-391 -694 0
388 391 694 0
c gate 695 389 694 0
389 -695 0
694 -695 0
-389 -694 695 0
c gate 696 -386 695 0
-386 -696 0
695 -696 0
386 -695 696 0
c gate 697 -693 -696 0
-693 -697 0
-696 -697 0
693 696 697 0
c gate 698 -403 -697 0
-403 -698 0
-697 -698 0
403 697 698 0
c gate 699 307 314 0
307 -699 0
314 -699 0
-307 -314 699 0
c gate 700 407 699 0
407 -700 0
699 -700 0
-407 -699 700 0
c gate 701 -666 -700 0
-666 -701 0
-700 -701 0
666 700 701 0
c gate 702 479 -701 0
479 -702 0
-701 -702 0
-479 701 702 0
c gate 703 395 -397 0
395 -703 0
-397 -703 0
-395 397 703 0
c gate 704 692 703 0
692 -704 0
703 -704 0
-692 -703 704 0
c gate 705 366 475 0
366 -705 0
475 -705 0
-366 -475 705 0
c gate 706 416 -427 0
416 -706 0
-427 -706 0
-416 427 706 0
c gate 707 410 -468 0
410 -707 0
-468 -707 0
-410 468 707 0
c gate 708 413 707 0
413 -708 0
707 -708 0
-413 -707 708 0
c gate 709 -706 708 0
-706 -709 0
708 -709 0
706 -708 709 0
c gate 710 466 709 0
466 -710 0
709 -710 0
-466 -709 710 0
c gate 711 -705 -710 0
-705 -711 0
-710 -711 0
705 710 711 0
c gate 712 -704 711 0
-704 -712 0
711 -712 0
704 -711 712 0
c gate 713 -702 712 0
-702 -713 0
712 -713 0
702 -712 713 0
c gate 714 -698 713 0
-698 -714 0
713 -714 0
698 -713 714 0
c gate 715 -691 714 0
-691 -715 0
714 -715 0
691 -714 715 0
c gate 716 -690 715 0
-690 -716 0
715 -716 0
690 -715 716 0
c gate 717 -687 716 0
-687 -717 0
716 -717 0
687 -716 717 0
c gate 718 -686 717 0
-686 -718 0
717 -718 0
686 -717 718 0
c gate 719 -679 718 0
-679 -719 0
718 -719 0
679 -718 719 0
c gate 720 -510 719 0
-510 -720 0
719 -720 0
510 -719 720 0
c gate 721 -664 720 0
-664 -721 0
720 -721 0
664 -720 721 0
c gate 722 -663 721 0
-663 -722 0
721 -722 0
663 -721 722 0
c gate 723 -656 722 0
-656 -723 0
722 -723 0
656 -722 723 0
c gate 724 -640 723 0
-640 -724 0
723 -724 0
640 -723 724 0
c PO
-724 0
